c
c start with comments
c
p cnf 24 17
1 24 26 7 0
13 7 14 -23 -21 0
25 10 -5 0
5 -2 -11 0
-26 -15 0
26 6 9 18 -24 0
2 -21 -18 5 -12 0
-12 24 10 -19 18 0
22 2 24 0
-22 8 0
-10 -8 20 0
15 -21 -23 17 -20 0
15 -16 -12 14 0
7 11 26 18 -19 16 0
-17 -5 -18 0
-6 11 12 0
26 -20 -25 18 0